NAME : cgl_48.9148.tour
COMMENT : Length = 9148
COMMENT : Found by LKH-3 [Keld Helsgaun] Fri Nov  8 17:38:19 2024
TYPE : TOUR
DIMENSION : 49
TOUR_SECTION
27
32
38
39
40
41
42
43
44
46
45
47
48
49
25
26
9
8
10
11
12
13
24
23
22
21
19
20
18
15
14
17
16
7
2
3
1
5
4
6
36
37
35
34
33
31
30
28
29
-1
EOF
